
******************************************************************************
This program contains Ipopt, a library for large-scale nonlinear optimization.
 Ipopt is released as open source code under the Eclipse Public License (EPL).
         For more information visit http://projects.coin-or.org/Ipopt
******************************************************************************

This is Ipopt version 3.12.6, running with linear solver ma57.

Number of nonzeros in equality constraint Jacobian...:     5000
Number of nonzeros in inequality constraint Jacobian.:        0
Number of nonzeros in Lagrangian Hessian.............:     5000

Total number of variables............................:     5000
                     variables with only lower bounds:        1
                variables with lower and upper bounds:        0
                     variables with only upper bounds:        0
Total number of equality constraints.................:        1
Total number of inequality constraints...............:        0
        inequality constraints with only lower bounds:        0
   inequality constraints with lower and upper bounds:        0
        inequality constraints with only upper bounds:        0

iter    objective    inf_pr   inf_du lg(mu)  ||d||  lg(rg) alpha_du alpha_pr  ls
   0  8.5853335e+04 2.50e+05 7.66e+00  -1.0 0.00e+00    -  0.00e+00 0.00e+00   0
   1  1.4282654e+04 6.77e+04 3.61e+00  -1.0 7.83e+00   0.0 1.00e+00 1.00e+00f  1
   2  1.9220244e+03 2.12e+04 6.25e-01  -1.0 4.10e+00    -  1.00e+00 1.00e+00f  1
   3  4.3616272e+02 9.83e+03 1.21e-01  -1.0 4.31e+00    -  1.00e+00 1.00e+00f  1
   4  4.5524051e+02 7.55e+03 1.27e-01  -1.0 5.25e+00    -  1.00e+00 1.00e+00h  1
   5  6.2407526e+02 4.48e+03 1.73e-01  -1.0 4.61e+00    -  1.00e+00 1.00e+00h  1
   6  8.5455501e+02 2.70e+03 2.98e-01  -1.0 3.71e+00    -  1.00e+00 1.00e+00h  1
   7  1.0525493e+03 1.64e+03 3.66e-01  -1.0 3.06e+00    -  1.00e+00 1.00e+00h  1
   8  1.3253353e+03 8.61e+02 4.30e-01  -1.0 2.15e+00    -  1.00e+00 1.00e+00h  1
   9  1.5976449e+03 4.27e+02 5.22e-01  -1.0 1.51e+00    -  1.00e+00 1.00e+00h  1
iter    objective    inf_pr   inf_du lg(mu)  ||d||  lg(rg) alpha_du alpha_pr  ls
  10  1.8320845e+03 2.03e+02 5.64e-01  -1.0 1.04e+00    -  1.00e+00 1.00e+00h  1
  11  2.0317539e+03 8.92e+01 5.81e-01  -1.0 6.70e-01    -  1.00e+00 1.00e+00h  1
  12  2.1851227e+03 3.71e+01 5.90e-01  -1.0 4.20e-01    -  1.00e+00 1.00e+00h  1
  13  2.2930932e+03 1.49e+01 5.94e-01  -1.0 2.63e-01    -  1.00e+00 1.00e+00h  1
  14  2.3652757e+03 5.80e+00 5.76e-01  -1.0 1.61e-01    -  1.00e+00 1.00e+00h  1
  15  2.4114698e+03 2.12e+00 5.30e-01  -1.0 9.62e-02    -  1.00e+00 1.00e+00h  1
  16  2.4391341e+03 6.90e-01 4.24e-01  -1.0 5.38e-02    -  1.00e+00 1.00e+00h  1
  17  2.4534736e+03 1.69e-01 3.59e-01  -1.7 3.90e-02    -  1.00e+00 1.00e+00h  1
  18  2.4586583e+03 2.08e-02 5.87e-02  -1.7 8.98e-03    -  1.00e+00 1.00e+00h  1
  19  2.4594439e+03 6.17e-04 1.47e-02  -2.5 9.37e-03    -  1.00e+00 1.00e+00h  1
iter    objective    inf_pr   inf_du lg(mu)  ||d||  lg(rg) alpha_du alpha_pr  ls
  20  2.4594679e+03 8.42e-06 1.99e-04  -3.8 3.93e-03    -  1.00e+00 1.00e+00h  1
  21  2.4594683e+03 3.03e-07 3.32e-07  -5.7 7.78e-04    -  1.00e+00 1.00e+00h  1
  22  2.4594683e+03 3.15e-10 2.95e-10  -5.7 2.51e-05    -  1.00e+00 1.00e+00h  1
  23  2.4594683e+03 1.74e-12 3.40e-12  -8.6 1.87e-06    -  1.00e+00 1.00e+00h  1

Number of Iterations....: 23

                                   (scaled)                 (unscaled)
Objective...............:   2.4594682654191292e+03    2.4594682654191292e+03
Dual infeasibility......:   3.4046556535421296e-12    3.4046556535421296e-12
Constraint violation....:   1.7435795235741016e-12    1.7435795235741016e-12
Complementarity.........:   2.6497095939194704e-09    2.6497095939194704e-09
Overall NLP error.......:   2.6497095939194704e-09    2.6497095939194704e-09


Number of objective function evaluations             = 24
Number of objective gradient evaluations             = 24
Number of equality constraint evaluations            = 24
Number of inequality constraint evaluations          = 0
Number of equality constraint Jacobian evaluations   = 24
Number of inequality constraint Jacobian evaluations = 0
Number of Lagrangian Hessian evaluations             = 23
Total CPU secs in IPOPT (w/o function evaluations)   =      0.077
Total CPU secs in NLP function evaluations           =      0.023

EXIT: Optimal Solution Found.

************************ CUTEst statistics ************************


 Package used            :  IPOPT
 Problem                 :  GILBERT   
 # variables             =            5000
 # constraints           =               1
 # objective functions   =        0.4900000E+02
 # objective gradients   =        0.2500000E+02
 # objective Hessians    =        0.2400000E+02
 # Hessian-vector prdct  =        0.0000000E+00
 # constraints functions =        0.5000000E+02
 # constraints gradients =        0.2600000E+02
 # constraints Hessians  =        0.2400000E+02
 Exit code               =               0
 Final f                 =   0.2459468E+04
 Set up time             =            0.09 seconds
 Solve time              =            0.27 seconds


******************************************************************

System Time =       0.0829999968 s.
